(set-info :smt-lib-version 2.6)
(set-logic QF_BV)
(set-info :source |
 Patrice Godefroid, SAGE (systematic dynamic test generation)
 For more information: http://research.microsoft.com/en-us/um/people/pg/public_psfiles/ndss2008.pdf
|)
(set-info :category "industrial")
(set-info :status sat)
(declare-fun T4_31445 () (_ BitVec 32))
(declare-fun T1_31445 () (_ BitVec 8))
(declare-fun T1_31446 () (_ BitVec 8))
(declare-fun T1_31447 () (_ BitVec 8))
(declare-fun T1_31448 () (_ BitVec 8))
(assert (and true (= T4_31445 (bvor (bvshl (bvor (bvshl (bvor (bvshl ((_ zero_extend 24) T1_31448) (_ bv8 32)) ((_ zero_extend 24) T1_31447)) (_ bv8 32)) ((_ zero_extend 24) T1_31446)) (_ bv8 32)) ((_ zero_extend 24) T1_31445))) (bvult (bvadd T4_31445 (_ bv28 32)) T4_31445) (bvule (_ bv8 32) T4_31445)))
(check-sat)
(exit)
